5353
1 0 0 0 0 1 0 1 0 0 0 0 0 1 0 0 0 0 0 0 1 1 0 0 0 0 1 0 1 0
0 0 0 0 0 0 0 0 5 5 5 5 5 7 7 7 7 7 7 7 7 7 7 7 7 7 7 13 13 13 13 13 13 13 13 13 13 20 13 13 13 13 20 20 20 20 20 20 21 20 21 20 0 21 21 21 21 26 26 26 26 26 26 26 28 28 28 28 0 28
